(declare-fun bvlambda_1_ () (_ BitVec 1))
(declare-fun bvlambda_2_ () (_ BitVec 1))
(declare-fun bvlambda_3_ () (_ BitVec 3))
(declare-fun bvlambda_4_ () (_ BitVec 1))
(declare-fun a75 () (Array (_ BitVec 1) (_ BitVec 4)))
(declare-fun a76 () (Array (_ BitVec 15) (_ BitVec 6)))
(declare-fun a78 () (Array (_ BitVec 11) (_ BitVec 6)))
(assert
(let (($e1 (_ bv0 1)))
(let (($e3 (_ bv5006 16)))
(let (($e18 (_ bv0 2)))
(let (($e19 (_ bv0 11)))
(let (($e29 (_ bv0 9)))
(let (($e31 (_ bv0 5)))
(let (($e32 (_ bv0 4)))
(let (($e36 (_ bv270 15)))
(let (($e38 (_ bv2018 11)))
(let (($e39 (_ bv0 10)))
(let (($e40 (_ bv0 15)))
(let (($e41 (_ bv0 3)))
(let (($e44 (_ bv0 8)))
(let (($e47 (_ bv0 16)))
(let (($e83 (select a78        $e19 )))
(let (($e84 (   extract      $e83)))
(let (($e86 (concat        $e29  $e83)))
(let (($e88                   $e86      ))
(let (($e89        a76                           ))
(let (($e90 (select $e89 $e88)))
(let (($e91 (   extract      $e90)))
(let (($e92 (store a75 $e91        $e32 )))
(let (($e93 (select $e92 $e84)))
(let (($e95                      $e93 ))
(let (($e97                   $e95      ))
(let (($e98 (   extract        $e97)))
(let (($e107               $e98              ))
(let (($e108               $e107                ))
(let (($e110 (concat $e40        $e108 )))
(let (($e111                    $e110       ))
(let (($e112      (bvult $e3 $e111)         ))
(let (($e113 (concat $e31        $e112 )))
(let (($e114         $e113      ))
(let (($e116 (select a78        $e38 )))
(let (($e117 (concat $e39 $e116)))
(let (($e118         $e117     ))
(let (($e123                                     #b0 ))
(let (($e124 (concat $e31 (bvnot $e123))))
(let (($e125 (bvurem $e124 $e90)))
(let (($e185 (select a75 (bvnot $e1))))
(let (($e251 (select a76 $e36)))
(let (($e273 (concat bvlambda_2_ bvlambda_3_)))
(let (($e416 (concat (bvnot $e44) bvlambda_1_)))
(let (($e417 (concat $e416 bvlambda_2_)))
(let (($e418 (concat $e417 bvlambda_3_)))
(let (($e419 (concat $e418 bvlambda_4_)))
(let (($e420                          $e419       ))
(let (($e421                      (bvnot $e420) ))
(let (($e423      (= $e118 $e47)         ))
(let (($e451 (   extract      $e251)))
(let (($e452 (store a75 $e1 $e273)))
(let (($e453 (select $e452 $e451)))
(let (($e454 (concat $e18 $e453)))
(let (($e455 (bvmul $e114 $e454)))
(let (($e457 (concat        $e31  $e423)))
(let (($e458                    $e457       ))
(let (($e459      (bvult $e458 $e455)         ))
(let (($e460         $e459                ))
(let (($e477              $e460 ))
(let (($e479                      (bvnot $e477) ))
(let (($e481 (concat $e44 $e125)))
(let (($e483                          $e481 ))
(let (($e484      (= $e483 $e421)         ))
(let (($e486 (concat        $e41  $e484)))
(let (($e487                    $e486       ))
(let (($e488      (bvult $e185 $e487)         ))
(let (($e494                     $e488  ))
             (bvand $e494 $e479)
                                                                                                                                                                                                                                                                                                                                                                                                                                                                                                                                                                                                                                 )     ))) )) ) ) )                )))) )))))                           ) ))))))                                                                                                                                              )                     )                                                                 )                                                           )))    ))) ))))) ))        )) ) )))))) ) ))                     )  )  )))) )   )) )         ))              ) ))
